20	5
0	8	5	2	1	6	7	4	8	3
1	2	19	12
2	5	11	14	15	12	16
3	5	20	16	15	10	17
4	2	18	19
5	2	9	17
6	2	16	13
7	4	17	18	13	9
8	1	15
9	2	15	14
10	4	18	19	21	13
11	3	20	17	10
12	1	21
13	1	21
14	1	21
15	1	21
16	1	21
17	1	21
18	1	21
19	1	21
20	1	21
21	0
0	0	0	0	0	0	0
1	4	4	5	1	3	1
2	5	0	0	1	5	0
3	4	2	4	3	4	3
4	7	3	4	5	3	1
5	6	4	3	5	5	3
6	1	0	4	0	5	0
7	7	5	5	0	0	0
8	10	3	0	0	4	0
9	5	4	1	2	5	5
10	10	0	0	4	4	5
11	7	5	2	5	0	1
12	8	0	5	4	5	3
13	1	4	4	4	0	0
14	3	1	2	3	4	4
15	2	3	5	2	5	3
16	3	2	0	1	5	5
17	7	0	0	0	0	5
18	6	0	3	0	2	5
19	2	5	5	1	2	5
20	7	3	3	3	5	2
21	0	0	0	0	0	0
9	8	7	9	9
